9503314402,1260080336
10,10,10
85 28 28 34 53 8 80 53 31 38 
66 64 53 65 5 60 40 7 4 12 
97 15 3 90 70 11 45 73 36 84 
95 94 44 38 45 94 19 29 75 96 
97 79 62 67 58 81 81 83 55 67 
25 96 28 70 83 5 46 18 22 21 
55 73 3 69 3 19 9 67 54 47 
24 95 1 34 84 16 39 3 36 7 
85 61 35 25 51 54 36 74 97 54 
77 85 68 18 69 51 81 31 90 76 
MACHINES
5 6 8 1 2 10 4 7 3 9 
3 4 5 10 6 1 9 2 8 7 
7 4 1 3 5 10 6 8 9 2 
9 8 7 2 1 4 6 10 3 5 
4 8 6 7 2 1 5 9 10 3 
7 1 3 8 10 9 5 4 2 6 
3 8 2 7 9 5 6 4 1 10 
2 8 4 5 10 7 6 3 9 1 
8 6 3 10 9 4 2 1 7 5 
7 3 10 8 5 6 9 1 4 2 
